132
1000000
108854
14732
114933
124408
109822
11813
241569
49067
161
183309
92622
124915
206222
155718
161578
75288
27987
126523
64298
92720
115302
29598
23119
43502
110025
173759
8623
34790
8563
196434
120266
151954
11857
137854
78841
111793
240061
218843
226895
64539
129058
193795
10119
136497
45389
110021
21005
228802
239443
219091
213143
92603
215731
66267
195813
152328
96422
161205
26722
135591
89679
106131
14496
163398
148036
40176
30496
196525
113334
168172
238664
95964
205439
90000
69991
135281
83986
171729
53815
125060
124376
9561
180177
22111
177602
111043
15590
111407
155339
73949
60465
46876
140060
101430
197656
138767
124054
120287
6415
21140
120946
39194
175577
25235
199318
151260
201872
150849
61492
40090
84896
50964
208367
683
166727
220255
205963
16822
179168
151555
51302
92307
157813
198512
58463
239910
238887
74022
969
130287
59411
86005
